p tw 51 220
0 1
0 2
0 3
0 4
0 5
0 6
0 7
0 10
0 20
0 22
0 23
0 24
0 25
0 26
0 42
0 43
0 44
0 45
0 46
1 2
1 3
1 4
1 5
1 6
1 7
2 3
2 4
2 5
2 6
2 7
3 4
3 5
3 6
3 7
3 42
3 43
3 44
3 45
3 46
4 5
4 6
4 7
5 6
5 7
6 7
7 42
7 43
7 44
7 45
7 46
8 9
8 10
8 11
8 12
8 13
8 14
8 15
9 10
9 11
9 12
9 13
9 14
9 15
10 11
10 12
10 13
10 14
10 15
10 20
10 22
10 23
10 24
10 25
10 26
11 12
11 13
11 14
11 15
12 13
12 14
12 15
12 16
12 29
12 40
12 47
12 48
12 49
12 50
13 14
13 15
14 15
14 16
14 17
14 18
14 19
14 20
14 21
14 22
16 17
16 18
16 19
16 20
16 21
16 22
16 29
16 40
16 47
16 48
16 49
16 50
17 18
17 19
17 20
17 21
17 22
18 19
18 20
18 21
18 22
18 27
18 28
18 29
18 30
18 31
18 32
18 33
19 20
19 21
19 22
20 21
20 22
20 23
20 24
20 25
20 26
21 22
22 23
22 24
22 25
22 26
23 24
23 25
23 26
24 25
24 26
25 26
27 28
27 29
27 30
27 31
27 32
27 33
28 29
28 30
28 31
28 32
28 33
29 30
29 31
29 32
29 33
29 40
29 47
29 48
29 49
29 50
30 31
30 32
30 33
31 32
31 33
32 33
34 35
34 36
34 37
34 38
34 39
34 40
34 41
35 36
35 37
35 38
35 39
35 40
35 41
36 37
36 38
36 39
36 40
36 41
37 38
37 39
37 40
37 41
38 39
38 40
38 41
39 40
39 41
40 41
40 47
40 48
40 49
40 50
42 43
42 44
42 45
42 46
43 44
43 45
43 46
44 45
44 46
45 46
47 48
47 49
47 50
48 49
48 50
49 50
